c defined variables: 
p cnf 86 57
a 1 2 3 4 5 6 7 8 9 10 11 12 13 14 0
d 15 6 9 11 0
d 16 13 0
d 17 1 2 5 10 0
d 18 5 11 14 0
d 19 6 0
d 20 4 0
d 21 7 10 12 13 0
d 22 1 4 10 0
d 23 5 8 9 11 0
d 24 3 7 13 14 0
d 25 2 5 8 12 0
d 26 2 8 9 12 0
d 27 1 10 11 12 0
d 28 2 7 0
-11 -13 -15 16 -17 0
-6 -12 15 -19 21 0
-7 13 -15 19 21 0
-7 -13 -17 19 21 0
-1 -11 -15 16 22 0
-2 5 17 -18 22 0
6 7 15 -16 -24 0
3 -10 -16 -17 -24 0
3 -14 -17 -20 -24 0
-3 -14 -16 20 -24 0
-12 14 -15 -21 24 0
7 9 -15 -22 24 0
-8 -14 -20 23 24 0
-1 6 -17 -19 -25 0
2 -13 -16 -21 -25 0
10 12 18 22 -25 0
2 5 -18 23 -25 0
-5 -9 -15 -24 -25 0
7 -14 19 -24 -25 0
-7 13 16 24 -25 0
-5 12 16 -17 25 0
-10 -13 -16 17 25 0
5 -7 -17 -21 25 0
-5 -10 19 -21 25 0
8 9 -16 18 -26 0
8 10 -18 -21 -26 0
-1 -12 -20 -22 -26 0
7 9 15 24 -26 0
-9 10 -22 25 -26 0
2 9 15 19 26 0
-4 -9 18 20 26 0
-4 9 -19 -22 26 0
-2 -10 19 22 26 0
-1 -9 -17 -23 26 0
11 -12 19 -23 26 0
-1 -9 19 23 -27 0
-10 -11 -22 -26 -27 0
-7 8 24 -26 -27 0
10 14 -18 26 -27 0
-10 -12 16 -19 27 0
-10 11 19 -21 27 0
-10 -11 -15 21 27 0
-4 11 -20 -22 27 0
8 -10 21 -26 27 0
7 13 15 16 -28 0
-2 -14 -17 -18 -28 0
2 -7 15 -19 -28 0
7 10 -15 21 -28 0
-2 6 -15 -25 -28 0
1 -6 15 -27 -28 0
10 12 21 -23 28 0
8 -9 -19 23 28 0
9 -10 21 23 28 0
-5 -8 -15 -25 28 0
-8 12 22 25 28 0
5 -7 23 -26 28 0
-7 12 25 27 28 0
